20J6M/DAT/20J6MNNL-16.dat
20 6
32.6356 32.6356
21.5291 21.5291
22.2792 22.2792
31.5151 31.5151
23.4564 23.4564
21.0896 21.0896
25.8045 25.8045
25.4728 25.4728
17.3255 17.3255
23.9586 23.9586
21.4355 21.4355
19.6767 19.6767
31.8857 31.8857
32.8152 32.8152
20.428 20.428
29.0054 29.0054
31.2256 31.2256
23.4236 23.4236
18.6121 18.6121
16.8323 16.8323
490.4065