20J6M/SOL/20J6MNNL-16.sol
solution status: optimal solution found
objective value:                     81.7344166666667
x#1#1                               0.561767415542128 	(obj:0)
x#1#3                               0.398346182287645 	(obj:0)
x#1#4                              0.0398864021702276 	(obj:0)
x#2#5                                               1 	(obj:0)
x#3#6                                               1 	(obj:0)
x#4#1                                               1 	(obj:0)
x#5#2                                               1 	(obj:0)
x#6#5                                               1 	(obj:0)
x#7#2                                               1 	(obj:0)
x#8#6                                               1 	(obj:0)
x#9#3                                               1 	(obj:0)
x#10#6                                              1 	(obj:0)
x#11#3                                              1 	(obj:0)
x#12#5                                              1 	(obj:0)
x#13#1                                              1 	(obj:0)
x#14#4                                              1 	(obj:0)
x#15#3                                              1 	(obj:0)
x#16#4                                              1 	(obj:0)
x#17#2                                0.3733037422286 	(obj:0)
x#17#3                              0.305683477659357 	(obj:0)
x#17#6                              0.321012780112045 	(obj:0)
x#18#2                               0.88871408892456 	(obj:0)
x#18#5                               0.11128591107544 	(obj:0)
x#19#4                                              1 	(obj:0)
x#20#5                                              1 	(obj:0)
z                                    81.7344166666667 	(obj:1)
